246.8 0
0 18 13 12 16 17 2 15 19 11 35 0
0 23 26 24 25 49 51 70 50 47 48 52 45 53 46 43 44 42 27 28 22 21 30 29 20 0
0 36 31 32 34 60 61 58 59 63 62 64 65 66 67 69 37 38 40 68 39 57 56 41 55 54 0
0 33 14 1 71 6 10 5 3 8 4 7 9 0
